Minimize
  obj: 0
Subject To
 
\true constraint
c0:  + 188 x0 + 950 x1 + 34 x2 + 682 x3 + 977 x4 + 589 x5 + 538 x6 + 654 x7 + 87 x8 + 561 x9 + 250 x10 + 284 x11 + 784 x12 + 227 x13 + 960 x14 + 512 x15 + 295 x16 + 659 x17 + 465 x18 + 972 x19 + 814 x20 + 878 x21 + 783 x22 + 885 x23 + 177 x24 + 521 x25 + 613 x26 + 577 x27 + 915 x28 + 184 x29 + 264 x30 + 102 x31 + 134 x32 + 298 x33 + 784 x34 + 110 x35 + 887 x36 + 321 x37 + 763 x38 + 974 x39 + 881 x40 + 13 x41 + 257 x42 + 664 x43 + 239 x44 + 217 x45 + 176 x46 + 534 x47 + 876 x48 + 640 x49 + 505 x50 + 690 x51 + 517 x52 + 287 x53 + 574 x54 + 694 x55 + 808 x56 + 187 x57 + 270 x58 + 722 x59 + 371 x60 + 534 x61 + 824 x62 + 504 x63 + 831 x64 + 607 x65 + 614 x66 + 717 x67 + 927 x68 + 377 x69 + 690 x70 + 808 x71 + 389 x72 + 947 x73 + 472 x74 + 628 x75 + 164 x76 + 647 x77 + 161 x78 + 39 x79 + 287 x80 + 666 x81 + 728 x82 + 803 x83 + 952 x84 + 302 x85 + 497 x86 + 759 x87 + 489 x88 + 767 x89 + 481 x90 + 859 x91 + 300 x92 + 304 x93 + 362 x94 + 130 x95 + 910 x96 + 976 x97 + 847 x98 + 837 x99 <= 27455
 
\multiple objectives
c1:  - 316 x0 - 285 x1 - 241 x2 - 485 x3 - 376 x4 - 54 x5 - 571 x6 - 971 x7 - 516 x8 - 430 x9 - 409 x10 - 151 x11 - 587 x12 - 632 x13 - 614 x14 - 412 x15 - 108 x16 - 872 x17 - 265 x18 - 622 x19 - 671 x20 - 359 x21 - 209 x22 - 535 x23 - 385 x24 - 845 x25 - 884 x26 - 462 x27 - 651 x28 - 773 x29 - 497 x30 - 967 x31 - 58 x32 - 737 x33 - 451 x34 - 434 x35 - 791 x36 - 21 x37 - 404 x38 - 307 x39 - 451 x40 - 812 x41 - 457 x42 - 37 x43 - 443 x44 - 71 x45 - 448 x46 - 551 x47 - 942 x48 - 713 x49 - 172 x50 - 613 x51 - 71 x52 - 380 x53 - 147 x54 - 455 x55 - 225 x56 - 31 x57 - 917 x58 - 875 x59 - 803 x60 - 413 x61 - 842 x62 - 860 x63 - 150 x64 - 292 x65 - 294 x66 - 941 x67 - 312 x68 - 697 x69 - 247 x70 - 762 x71 - 508 x72 - 703 x73 - 799 x74 - 951 x75 - 773 x76 - 247 x77 - 501 x78 - 715 x79 - 959 x80 - 672 x81 - 327 x82 - 30 x83 - 52 x84 - 474 x85 - 484 x86 - 277 x87 - 504 x88 - 401 x89 - 152 x90 - 307 x91 - 814 x92 - 993 x93 - 167 x94 - 963 x95 - 284 x96 - 460 x97 - 904 x98 - 596 x99 < 1
c2:  - 156 x0 - 150 x1 - 358 x2 - 664 x3 - 853 x4 - 156 x5 - 614 x6 - 625 x7 - 403 x8 - 114 x9 - 340 x10 - 361 x11 - 786 x12 - 666 x13 - 390 x14 - 838 x15 - 140 x16 - 874 x17 - 115 x18 - 644 x19 - 275 x20 - 266 x21 - 950 x22 - 88 x23 - 258 x24 - 116 x25 - 50 x26 - 542 x27 - 575 x28 - 954 x29 - 138 x30 - 730 x31 - 103 x32 - 495 x33 - 393 x34 - 955 x35 - 651 x36 - 7 x37 - 580 x38 - 53 x39 - 121 x40 - 919 x41 - 414 x42 - 907 x43 - 585 x44 - 804 x45 - 744 x46 - 724 x47 - 678 x48 - 859 x49 - 367 x50 - 952 x51 - 124 x52 - 317 x53 - 39 x54 - 382 x55 - 432 x56 - 89 x57 - 923 x58 - 6 x59 - 42 x60 - 60 x61 - 736 x62 - 145 x63 - 555 x64 - 129 x65 - 99 x66 - 205 x67 - 136 x68 - 679 x69 - 257 x70 - 256 x71 - 597 x72 - 671 x73 - 162 x74 - 182 x75 - 474 x76 - 906 x77 - 906 x78 - 151 x79 - 764 x80 - 273 x81 - 103 x82 - 888 x83 - 589 x84 - 141 x85 - 269 x86 - 20 x87 - 230 x88 - 192 x89 - 26 x90 - 272 x91 - 251 x92 - 762 x93 - 416 x94 - 806 x95 - 891 x96 - 515 x97 - 10 x98 - 27 x99 < 2
c3:  - 193 x0 - 267 x1 - 282 x2 - 789 x3 - 937 x4 - 444 x5 - 971 x6 - 410 x7 - 350 x8 - 876 x9 - 561 x10 - 114 x11 - 148 x12 - 664 x13 - 1 x14 - 736 x15 - 805 x16 - 270 x17 - 756 x18 - 34 x19 - 461 x20 - 782 x21 - 305 x22 - 712 x23 - 543 x24 - 721 x25 - 517 x26 - 434 x27 - 235 x28 - 527 x29 - 460 x30 - 427 x31 - 793 x32 - 742 x33 - 216 x34 - 729 x35 - 186 x36 - 186 x37 - 139 x38 - 536 x39 - 61 x40 - 700 x41 - 649 x42 - 208 x43 - 363 x44 - 650 x45 - 944 x46 - 167 x47 - 920 x48 - 699 x49 - 201 x50 - 381 x51 - 480 x52 - 506 x53 - 92 x54 - 23 x55 - 226 x56 - 609 x57 - 457 x58 - 460 x59 - 135 x60 - 916 x61 - 887 x62 - 927 x63 - 658 x64 - 102 x65 - 656 x66 - 843 x67 - 287 x68 - 795 x69 - 379 x70 - 348 x71 - 494 x72 - 28 x73 - 555 x74 - 857 x75 - 677 x76 - 499 x77 - 23 x78 - 597 x79 - 197 x80 - 223 x81 - 977 x82 - 677 x83 - 729 x84 - 69 x85 - 699 x86 - 954 x87 - 677 x88 - 155 x89 - 413 x90 - 812 x91 - 71 x92 - 299 x93 - 739 x94 - 729 x95 - 401 x96 - 394 x97 - 572 x98 - 687 x99 < 3

BINARY
x0 x1 x2 x3 x4 x5 x6 x7 x8 x9 x10 x11 x12 x13 x14 x15 x16 x17 x18 x19 x20 x21 x22 x23 x24 x25 x26 x27 x28 x29 x30 x31 x32 x33 x34 x35 x36 x37 x38 x39 x40 x41 x42 x43 x44 x45 x46 x47 x48 x49 x50 x51 x52 x53 x54 x55 x56 x57 x58 x59 x60 x61 x62 x63 x64 x65 x66 x67 x68 x69 x70 x71 x72 x73 x74 x75 x76 x77 x78 x79 x80 x81 x82 x83 x84 x85 x86 x87 x88 x89 x90 x91 x92 x93 x94 x95 x96 x97 x98 x99
End
